32      4       
10      10      10      10      
0       0       0       0       0       7       2       3       6       7       11      15      21      
3       0       1       1       1       5       4       5       10      30      31      
1       0       5       3       5       4       12      14      28      29      
9       1       4       0       3       2       9       14      
1       4       0       2       3       2       8       29      
4       1       0       6       3       2       10      16      
5       0       4       4       5       2       9       19      
3       4       5       4       0       1       9       
10      5       3       4       0       3       13      27      28      
4       6       3       0       4       3       13      27      28      
5       5       3       5       0       3       13      19      27      
4       2       7       5       0       2       13      19      
5       6       2       3       0       4       17      24      25      26      
2       7       6       3       0       4       19      23      24      25      
1       5       7       0       6       3       18      19      24      
1       5       0       4       4       2       19      23      
9       0       4       7       6       1       18      
7       0       6       3       3       2       20      23      
7       0       3       5       5       1       20      
6       0       4       3       4       1       22      
6       3       2       5       0       1       27      
9       3       0       3       4       1       32      
5       4       0       4       8       1       32      
10      0       5       6       3       1       32      
4       3       7       5       0       1       32      
8       3       2       0       4       1       32      
10      0       3       4       5       1       32      
1       0       5       4       3       1       32      
2       4       3       0       1       1       32      
10      4       2       4       0       1       32      
6       5       0       3       4       1       32      
0       0       0       0       0       0       
